125
[12,13,14,15,16,17,18,19,20,21,22,23,24,25,26,27,28,29,30,31,32,33,34,35,36,37,38,39,40,41,42,43,44,45,46,47,48,49,50,51,52,53,54,55,56,57,58,59,60,61,62,63,64,65,66,67,68,69,70,71,72,73,74,75,76,77,78,79,80,81,82,83,84,85,86,87]
[7,4,10,8,4,4,5,5,6,4,6,5,8,9,4,4,7,6,5,4,1,6,4,5,4,5,3,7,5,5,4,6,3,3,5,12,4,5,4,8,4,5,4,4,10,4,3,4,7,3,5,5,8,3,4,6,2,4,8,5,5,3,9,5,8,5,6,6,4,10,3,4,3,5,5,7]
